4 
5  12 34 54 
6  08 15 23 30 38 46 52 
7  01 08 16 22 28 36 43 51 58 
8  06 13 21 28 36 43 51 58 
9  06 13 21 28 36 43 51 58 
10  06 13 21 28 36 43 51 58 
11  06 13 21 28 36 43 51 58 
12  06 13 21 28 36 43 51 58 
13  06 13 22 29 37 44 52 59 
14  07 14 22 29 37 44 52 59 
15  07 14 22 28 37 44 52 59 
16  07 14 22 28 37 44 52 59 
17  07 14 22 29 37 44 52 59 
18  07 14 22 29 37 44 52 
19  00 07 14 21 28 36 43 51 58 
20  06 13 21 28 38 53 
21  08 23 38 53 
22  08 23 35 48 
23  03 18 
0 
